 200 87 
 54 46 92 29 93 100 41 39 67 81 13 74 
 30 94 35 54 44 82 45 11 47 98 86 63 
 76 92 6 84 59 50 75 15 90 23 53 11 
 96 80 57 22 58 2 43 36 28 50 19 42 
 4 35 19 25 45 4 10 69 14 24 10 71 
 40 21 92 54 79 99 13 86 64 91 48 65 
 68 89 30 80 19 32 60 28 86 95 91 68 
 18 21 42 
 23 
 1 4 11 17 18 19 28 30 37 39 41 42 
 47 54 55 63 66 71 74 75 78 81 84 
 23 
 5 6 14 15 22 23 28 35 40 44 46 48 
 50 53 54 56 65 69 70 71 74 77 81 
 86 
 1 2 3 4 5 6 7 8 9 10 11 12 
 13 14 15 16 17 18 19 20 21 22 23 24 
 25 26 27 28 29 30 31 32 33 34 35 36 
 37 38 39 40 41 42 43 44 45 46 47 48 
 49 50 51 52 53 54 55 56 57 58 59 60 
 61 62 63 64 65 66 67 68 69 70 71 72 
 73 74 75 76 77 78 79 80 81 82 83 85 
 86 87 
 69 
 2 3 4 5 7 8 10 11 12 13 14 15 
 16 17 18 19 22 23 24 28 29 30 31 32 
 33 34 35 37 38 39 40 41 42 43 44 45 
 48 49 50 51 52 53 54 55 56 57 58 59 
 60 64 65 66 67 68 69 70 71 72 74 75 
 76 77 78 79 81 82 83 85 87 
 47 
 1 2 3 4 5 8 9 14 16 19 20 26 
 29 32 34 35 36 37 39 43 44 45 46 48 
 50 51 52 54 58 59 60 61 62 64 66 67 
 68 70 73 74 75 76 77 78 79 82 83 
 44 
 1 4 6 8 9 10 11 16 21 22 23 24 
 29 30 32 34 35 37 38 39 40 42 49 50 
 54 56 57 59 60 63 64 65 67 72 73 74 
 77 78 79 81 83 84 85 87 
 5 
 34 35 50 69 71 
 53 
 4 5 7 12 13 14 15 16 17 19 20 22 
 23 24 25 26 29 30 31 32 33 35 36 37 
 38 40 41 42 45 46 47 48 49 50 51 52 
 53 54 55 59 61 62 63 64 66 68 69 70 
 71 72 74 76 86 
 43 
 1 3 7 8 9 13 14 16 22 28 35 37 
 38 39 43 44 47 49 50 53 54 56 57 59 
 61 63 65 66 67 69 70 71 73 75 76 77 
 78 79 80 82 84 85 87 
 42 
 1 2 6 8 11 12 13 14 15 16 22 23 
 24 28 30 31 33 34 35 37 39 40 41 42 
 44 51 52 58 63 65 66 69 70 72 73 76 
 77 79 80 84 86 87 
 18 
 3 7 10 12 20 23 38 41 44 45 46 58 
 64 68 74 80 86 87 
 46 
 2 3 4 5 6 8 10 11 13 14 15 16 
 19 21 24 26 28 30 37 41 42 44 49 51 
 53 54 56 58 59 60 61 63 65 66 67 70 
 72 73 74 76 77 79 82 83 84 86 
 32 
 1 3 7 13 15 17 19 20 21 27 28 30 
 31 32 37 39 43 44 49 50 53 55 68 70 
 72 73 74 75 78 83 85 87 
 68 
 1 2 3 4 6 7 8 9 10 11 12 13 
 14 15 17 18 20 21 22 23 24 25 26 27 
 28 29 31 32 33 34 35 37 39 40 41 42 
 43 44 46 48 49 50 51 54 55 57 58 59 
 60 62 63 64 65 66 68 69 71 72 73 74 
 75 76 78 80 81 82 83 86 
 25 
 9 10 14 19 25 29 30 31 36 41 42 46 
 50 57 61 62 63 64 65 68 71 74 79 80 
 86 
 6 
 19 28 53 66 69 85 
 36 
 1 2 9 10 18 23 24 28 30 31 34 36 
 39 40 42 43 47 48 49 51 53 54 56 60 
 62 64 67 70 72 77 78 81 83 85 86 87 
 69 
 1 3 4 6 7 8 9 10 11 12 13 15 
 17 18 19 20 21 22 23 24 26 28 29 30 
 31 32 33 35 36 37 38 41 43 44 45 46 
 48 49 52 53 54 55 56 57 59 60 63 64 
 65 66 67 68 69 70 72 73 74 75 76 77 
 78 79 80 81 82 83 85 86 87 
 69 
 1 2 3 4 5 6 8 9 10 11 12 14 
 15 17 19 20 22 23 25 26 27 28 29 32 
 33 35 36 37 38 39 40 41 42 43 46 47 
 48 49 50 51 54 55 57 58 59 60 61 62 
 63 65 66 67 68 69 70 71 72 73 74 75 
 76 77 78 79 81 82 83 85 87 
 81 
 1 2 4 5 6 7 8 9 10 11 12 13 
 14 15 16 17 18 19 20 21 22 23 24 25 
 26 27 28 29 30 31 32 33 34 35 36 37 
 38 39 41 42 43 44 45 46 47 48 49 50 
 51 52 53 54 55 56 57 58 59 60 61 62 
 63 64 65 66 67 68 69 70 71 72 73 76 
 77 78 79 81 82 84 85 86 87 
 34 
 4 6 12 13 14 15 18 20 22 23 26 33 
 34 38 46 51 52 53 54 55 57 60 61 62 
 66 67 68 69 71 73 75 76 83 86 
 69 
 1 2 3 4 6 7 8 9 10 11 13 14 
 16 20 22 23 24 26 27 28 30 31 32 33 
 35 36 37 38 40 41 42 43 44 45 46 47 
 48 50 52 53 54 55 56 57 58 59 60 61 
 62 64 66 67 68 69 70 72 73 74 75 76 
 77 78 80 81 83 84 85 86 87 
 63 
 1 3 6 7 8 9 13 15 16 18 19 20 
 22 23 24 25 26 27 28 30 31 32 34 36 
 37 38 40 41 42 44 46 47 48 49 51 52 
 53 55 56 57 58 59 60 61 63 64 65 66 
 68 69 70 71 72 73 77 78 79 80 81 83 
 84 85 86 
 65 
 2 4 5 6 8 12 16 17 18 19 20 21 
 22 24 25 26 27 28 29 30 31 32 33 34 
 35 36 37 38 39 40 42 43 44 45 46 47 
 50 51 52 53 54 55 56 57 58 59 62 63 
 65 66 67 68 69 72 73 74 75 77 79 81 
 82 83 84 86 87 
 81 
 1 2 3 4 5 6 7 9 10 11 13 14 
 15 16 17 18 19 20 21 22 23 24 25 26 
 27 28 29 30 31 32 33 34 35 36 37 38 
 39 40 41 42 43 44 45 46 47 48 49 50 
 51 52 53 54 55 56 57 58 59 61 62 63 
 64 65 66 67 68 69 70 72 73 74 75 76 
 77 78 79 80 81 84 85 86 87 
 48 
 1 3 7 9 11 12 13 14 18 19 20 22 
 25 27 29 30 37 39 40 41 42 43 46 47 
 49 50 51 52 53 58 61 63 64 66 70 72 
 73 74 75 76 79 80 81 83 84 85 86 87 
 56 
 2 4 5 6 7 8 9 10 11 12 15 16 
 17 18 19 20 21 23 24 25 26 28 29 31 
 32 33 34 35 36 40 41 43 44 45 46 48 
 50 51 53 55 57 60 62 65 67 68 69 70 
 71 76 77 79 80 82 86 87 
 45 
 1 3 4 6 8 9 10 11 12 13 14 15 
 16 17 18 21 22 24 25 27 28 33 36 37 
 39 40 41 43 44 46 47 51 53 54 57 59 
 62 69 72 77 78 80 83 84 86 
 18 
 1 7 13 16 21 22 23 25 37 44 45 47 
 58 60 63 65 76 85 
 28 
 2 5 11 12 14 17 20 22 24 33 34 37 
 38 40 41 42 46 48 56 61 63 65 68 69 
 70 72 85 86 
 43 
 1 3 4 8 9 12 18 19 21 23 24 25 
 26 27 30 35 39 40 41 42 46 48 50 53 
 54 55 56 59 60 61 62 63 64 72 74 75 
 76 77 78 80 83 85 87 
 12 
 11 15 17 26 28 46 52 59 66 70 77 82 
 43 
 4 5 7 10 11 12 13 14 16 17 18 22 
 23 24 27 31 33 36 42 43 44 45 46 48 
 49 50 52 55 57 58 59 60 65 67 68 74 
 76 80 81 82 83 85 87 
 72 
 1 3 4 5 6 7 8 10 11 12 14 15 
 16 17 18 20 22 23 26 28 29 30 31 32 
 33 34 35 36 37 38 39 40 41 42 43 44 
 46 47 48 49 51 52 53 54 55 56 57 58 
 59 60 61 62 63 64 65 66 68 69 70 71 
 73 74 75 76 77 78 79 81 82 84 86 87 
 53 
 2 3 5 7 8 9 12 14 15 17 18 20 
 21 23 25 26 27 28 29 30 33 35 36 37 
 38 41 43 50 51 52 53 55 59 60 61 62 
 64 67 68 69 70 71 73 74 75 76 78 80 
 81 82 84 85 86 
 83 
 1 2 3 4 5 6 7 8 10 11 12 14 
 15 16 17 18 19 20 21 22 23 24 25 26 
 27 28 29 30 31 32 33 34 35 36 37 38 
 39 40 41 42 43 44 45 46 47 48 49 50 
 51 52 53 54 55 56 57 58 59 60 61 62 
 63 65 66 67 68 69 70 71 73 74 75 76 
 77 78 79 80 81 82 83 84 85 86 87 
 24 
 2 5 15 16 17 18 22 31 32 37 39 41 
 42 44 53 55 57 64 78 80 81 83 85 86 
 47 
 2 3 4 5 7 8 10 11 15 17 18 21 
 22 23 25 26 29 30 32 33 34 35 36 37 
 38 39 40 41 42 44 45 51 52 53 59 60 
 62 64 65 67 69 72 73 75 80 86 87 
 46 
 1 3 9 10 11 15 17 20 22 25 26 28 
 29 30 32 33 35 36 37 41 43 47 48 50 
 51 53 55 56 57 58 59 61 62 65 66 67 
 69 71 75 78 79 80 81 82 84 86 
 81 
 1 2 3 4 5 6 7 8 9 10 11 12 
 13 14 15 16 17 18 20 21 22 23 25 26 
 27 28 29 30 31 32 33 34 35 36 37 38 
 39 40 42 43 44 45 46 47 48 49 51 52 
 53 54 55 56 58 59 60 62 63 64 65 66 
 67 68 69 70 71 72 73 74 75 76 77 78 
 79 80 81 82 83 84 85 86 87 
 72 
 1 2 3 4 5 7 8 9 11 12 13 14 
 15 16 17 18 19 20 23 24 25 26 27 28 
 29 30 31 32 33 34 36 38 39 40 41 42 
 43 44 46 47 49 50 51 52 53 54 56 57 
 58 59 60 61 63 64 65 66 70 71 72 73 
 74 75 76 77 78 79 81 82 83 84 85 87 
 26 
 6 7 11 13 16 20 22 25 27 28 29 33 
 42 52 53 55 60 70 75 77 78 79 80 81 
 83 87 
 25 
 7 10 13 14 16 17 23 26 29 41 42 45 
 47 48 50 56 58 60 62 70 71 74 75 80 
 81 
 29 
 9 10 14 16 17 18 21 23 28 30 35 39 
 42 45 46 48 53 54 55 62 63 64 65 69 
 78 79 82 84 85 
 22 
 2 3 6 9 11 13 22 23 24 27 35 38 
 42 43 51 55 58 62 70 76 78 87 
 25 
 6 7 14 20 22 23 27 37 38 39 40 43 
 44 47 51 52 53 59 60 64 70 73 75 79 
 81 
 77 
 2 4 5 6 7 8 9 11 13 14 15 16 
 17 18 19 20 21 22 23 24 25 26 27 28 
 29 31 32 33 34 35 36 37 40 41 43 44 
 45 46 47 48 49 50 51 52 53 54 55 56 
 57 58 59 61 62 63 64 65 67 68 69 70 
 71 72 73 74 75 76 77 78 79 80 81 82 
 83 84 85 86 87 
 4 
 3 24 31 36 
 21 
 2 6 8 11 20 28 30 35 37 40 44 46 
 49 50 55 60 66 74 75 81 84 
 59 
 1 2 3 5 6 8 10 12 13 14 16 17 
 18 19 20 23 24 25 26 27 28 29 30 31 
 32 34 36 37 39 41 42 45 47 48 50 51 
 52 53 54 56 57 58 59 60 61 62 64 65 
 66 67 68 72 74 76 79 80 84 85 87 
 69 
 1 2 5 6 9 10 11 12 13 14 15 16 
 18 19 20 21 22 23 25 26 27 28 29 31 
 32 33 34 35 36 37 38 39 40 41 42 43 
 45 46 50 51 52 53 54 55 56 57 58 59 
 60 61 62 63 64 66 67 68 69 70 71 72 
 74 75 76 78 79 83 84 85 86 
 34 
 1 3 4 7 10 12 14 15 17 19 22 24 
 25 26 29 33 34 37 41 42 46 48 50 51 
 56 60 61 65 66 67 79 80 86 87 
 3 
 27 43 67 
 36 
 4 6 10 11 13 16 18 19 21 23 31 32 
 36 40 42 43 45 46 48 50 55 56 58 60 
 62 65 66 68 69 70 71 73 79 81 84 85 
 63 
 1 2 4 5 6 7 9 10 11 13 14 15 
 17 18 20 21 22 23 24 25 27 32 33 34 
 35 37 38 41 42 44 46 47 48 49 51 52 
 53 54 55 56 57 58 60 62 63 66 67 68 
 69 70 71 72 74 76 77 78 79 80 82 83 
 84 85 86 
 28 
 1 5 6 10 11 17 18 19 21 22 25 33 
 37 38 46 49 51 54 55 66 67 68 71 73 
 77 80 84 86 
 19 
 10 11 14 16 20 25 30 31 40 45 52 54 
 59 67 70 72 82 83 84 
 8 
 4 48 52 56 57 66 78 87 
 35 
 6 11 15 17 19 23 24 27 28 31 33 34 
 39 46 47 48 49 51 52 54 59 60 61 62 
 64 68 71 72 74 77 82 83 84 85 87 
 37 
 4 12 15 19 21 22 23 24 26 29 30 32 
 33 39 41 43 44 46 47 50 51 52 53 55 
 58 59 61 63 64 68 69 72 73 74 76 77 
 78 
 27 
 2 5 6 8 9 12 16 25 27 33 36 38 
 41 42 51 52 53 55 62 68 72 75 77 78 
 84 86 87 
 4 
 18 26 44 52 
 56 
 2 3 5 8 9 11 12 13 14 15 16 17 
 20 21 22 24 29 30 31 32 33 34 36 38 
 39 41 43 44 46 47 48 49 51 53 57 58 
 59 60 61 62 64 66 68 69 72 73 74 75 
 76 77 78 80 81 85 86 87 
 52 
 1 2 3 4 6 7 8 9 12 13 16 17 
 18 19 21 22 23 24 25 28 29 32 33 35 
 36 39 43 44 51 52 54 55 60 61 62 63 
 65 67 68 69 70 71 72 73 75 76 77 79 
 81 83 84 85 
 16 
 2 7 8 9 13 16 19 23 26 36 40 44 
 71 79 80 84 
 39 
 1 3 7 8 9 10 14 16 18 19 23 24 
 26 28 30 32 33 36 38 40 44 46 47 50 
 51 52 56 61 63 65 67 68 69 73 74 78 
 81 83 86 
 61 
 1 2 3 4 5 7 9 11 13 14 15 16 
 18 19 21 22 23 24 25 27 28 29 32 33 
 34 36 38 39 41 42 43 44 45 47 48 49 
 50 53 56 57 58 59 60 61 62 64 65 67 
 70 72 74 75 76 77 79 81 83 84 85 86 
 87 
 25 
 2 4 5 8 11 15 17 19 22 25 27 31 
 33 37 42 49 52 58 60 63 72 74 76 79 
 83 
 38 
 1 2 3 5 6 15 16 19 22 24 26 27 
 29 31 33 34 35 39 40 41 42 44 45 47 
 52 53 59 62 65 66 69 70 74 78 79 81 
 82 87 
 68 
 1 4 5 7 10 11 12 13 14 15 16 17 
 18 21 22 23 24 25 26 27 28 30 31 32 
 33 34 35 37 38 39 40 43 45 46 47 49 
 50 51 52 53 54 57 58 59 60 61 62 63 
 64 65 66 68 69 70 71 72 73 75 76 77 
 78 79 81 82 83 84 85 86 
 81 
 1 2 3 4 5 6 7 8 9 10 11 12 
 14 15 16 17 18 19 20 21 22 23 24 25 
 26 27 28 29 30 31 32 35 36 37 38 39 
 40 41 42 43 44 45 46 47 48 49 50 51 
 52 53 54 55 56 57 58 59 60 61 62 63 
 64 65 66 67 69 70 71 72 73 74 75 76 
 77 78 79 80 81 83 84 85 86 
 79 
 1 2 3 4 5 6 7 8 9 10 11 13 
 14 15 16 17 18 19 20 21 22 23 24 25 
 26 27 28 29 30 31 32 33 34 35 36 37 
 38 39 40 41 43 45 46 47 49 50 51 52 
 53 54 55 56 57 58 59 60 61 62 63 64 
 65 66 67 68 69 70 71 72 74 76 77 78 
 79 81 82 83 85 86 87 
 18 
 1 10 14 23 32 36 40 46 48 50 57 59 
 66 70 72 74 75 77 
 18 
 1 2 13 14 15 18 24 34 36 42 44 53 
 58 59 61 62 79 84 
 70 
 2 3 4 5 6 7 8 9 10 12 13 15 
 16 17 18 19 20 21 22 23 24 25 26 27 
 28 29 30 32 33 35 36 37 38 39 40 41 
 42 43 47 48 49 51 52 53 54 55 56 57 
 58 59 60 61 62 65 66 67 68 69 71 72 
 74 76 77 78 79 80 84 85 86 87 
 8 
 13 14 17 18 36 40 57 73 
 71 
 1 4 5 6 7 8 9 10 11 12 13 14 
 15 16 17 18 19 20 21 22 23 25 26 27 
 28 30 31 32 33 34 35 38 39 40 42 43 
 45 46 47 48 49 51 52 53 54 55 56 59 
 60 61 62 63 64 65 66 67 68 69 70 71 
 74 75 76 77 78 79 82 83 85 86 87 
 55 
 1 3 5 7 8 9 10 11 12 13 14 15 
 16 19 20 21 22 24 25 26 28 29 31 33 
 34 37 38 41 42 43 46 49 50 54 55 57 
 58 59 60 65 66 67 68 71 72 74 75 76 
 77 80 81 82 84 86 87 
 37 
 5 6 8 9 12 16 20 24 29 30 31 33 
 36 37 38 44 45 46 47 48 49 50 51 52 
 53 59 62 69 71 73 74 76 77 79 81 83 
 85 
 68 
 1 2 3 5 8 9 10 11 12 13 14 15 
 16 18 19 20 21 22 23 25 26 27 29 32 
 33 34 35 36 37 38 40 41 42 43 44 45 
 47 48 50 51 52 53 54 55 56 58 59 61 
 64 66 67 68 69 70 71 72 73 74 75 76 
 77 81 82 83 84 85 86 87 
 79 
 1 2 3 4 5 7 8 9 10 11 12 13 
 14 15 16 17 18 19 20 21 22 23 24 25 
 26 27 29 30 31 32 34 35 36 37 38 39 
 42 43 44 45 46 47 48 49 50 52 53 55 
 56 57 58 59 60 61 62 63 64 65 66 67 
 68 70 71 72 73 74 75 76 77 78 79 80 
 81 82 83 84 85 86 87 
 15 
 6 12 16 18 27 32 43 46 49 62 66 79 
 81 83 86 
 35 
 1 3 5 6 7 8 12 13 15 18 20 22 
 26 29 30 34 35 36 39 40 41 50 53 58 
 59 61 62 63 69 71 74 76 80 83 86 
 18 
 3 6 16 21 22 24 26 41 42 45 47 49 
 67 69 75 78 81 87 
 57 
 2 4 5 7 8 9 11 12 13 14 16 17 
 19 20 21 22 25 26 28 30 31 33 34 36 
 37 39 40 41 43 44 45 49 50 51 54 55 
 56 57 58 60 61 62 63 64 65 67 68 69 
 71 73 74 75 76 79 80 81 83 
 65 
 3 4 6 8 10 11 12 14 15 17 18 20 
 21 22 23 24 25 26 27 28 29 30 31 32 
 33 34 36 37 39 40 41 43 44 45 46 48 
 49 51 52 53 55 59 61 62 63 66 67 68 
 69 71 72 74 75 76 77 78 79 80 81 82 
 83 84 85 86 87 
 15 
 4 8 15 22 30 32 35 36 42 49 50 64 
 65 71 73 
 14 
 12 17 18 27 40 45 61 63 64 67 72 73 
 75 77 
 82 
 1 2 3 4 5 7 8 9 10 11 12 13 
 14 15 16 17 18 19 20 21 22 23 24 25 
 26 27 28 29 30 31 32 33 34 35 36 37 
 38 39 40 41 42 43 44 45 46 47 48 49 
 52 53 54 56 57 58 59 60 62 63 64 65 
 66 67 68 69 70 71 72 73 74 75 76 77 
 78 79 80 81 82 83 84 85 86 87 
 65 
 2 3 4 5 7 8 10 11 12 13 14 15 
 18 19 20 21 22 24 25 26 27 28 31 32 
 33 34 37 39 40 41 43 44 45 46 48 49 
 50 51 53 54 55 56 58 59 60 61 62 64 
 65 66 68 71 72 73 74 75 76 77 78 79 
 80 81 82 85 86 
 66 
 1 2 3 4 5 6 7 9 10 11 14 15 
 17 19 20 21 23 25 26 27 28 31 32 33 
 34 35 36 37 38 39 41 42 43 44 45 46 
 47 48 49 50 51 52 55 59 60 61 62 64 
 65 66 67 68 69 70 71 72 73 74 77 78 
 79 80 82 83 84 85 
 45 
 4 5 6 7 11 12 13 14 17 18 19 20 
 22 25 28 31 36 38 40 44 45 48 51 53 
 56 58 60 62 63 64 65 66 67 68 70 71 
 72 73 75 76 79 80 82 84 85 
 70 
 1 2 3 4 6 7 8 9 10 11 12 13 
 14 15 16 18 19 20 21 22 23 24 25 26 
 29 30 31 32 33 34 37 39 40 41 42 43 
 46 47 48 49 50 52 54 56 57 58 59 60 
 61 62 64 65 66 67 68 69 71 72 73 74 
 75 76 77 79 80 82 83 85 86 87 
 2 
 63 86 
 40 
 1 4 5 6 8 9 13 14 16 20 21 22 
 31 33 34 36 38 41 43 44 46 47 49 51 
 52 55 56 57 63 65 66 69 72 73 78 79 
 81 82 83 84 
 7 
 10 20 26 36 37 42 86 
 43 
 6 7 10 14 17 19 20 22 24 31 32 36 
 37 38 39 41 42 45 47 48 49 51 52 56 
 57 58 59 60 61 63 64 65 68 70 73 76 
 77 79 80 83 85 86 87 
 35 
 3 4 5 12 13 15 19 21 25 26 28 30 
 31 32 33 34 42 46 47 48 50 51 58 62 
 67 68 70 75 76 77 79 80 81 85 87 
 83 
 1 2 3 4 5 6 7 9 10 11 12 15 
 16 17 18 19 20 21 22 23 24 25 26 27 
 28 29 30 31 32 33 34 35 36 37 38 39 
 40 41 42 43 44 45 46 47 48 49 50 51 
 52 53 54 55 56 57 59 60 61 62 63 64 
 65 66 67 68 69 70 71 72 73 74 75 76 
 77 78 79 80 81 82 83 84 85 86 87 
 36 
 7 9 10 12 13 19 20 24 26 27 28 29 
 30 31 37 38 40 41 43 49 52 53 59 62 
 64 66 72 73 75 76 77 78 80 81 82 83 
 15 
 1 3 5 11 12 13 15 16 21 26 48 62 
 69 84 87 
 54 
 1 2 3 4 5 10 11 13 16 17 18 20 
 22 24 25 26 27 28 29 30 31 32 33 34 
 36 37 38 40 42 43 44 45 48 49 52 53 
 56 57 58 59 62 64 65 66 67 68 71 72 
 77 78 80 82 83 84 
 69 
 2 3 5 6 7 8 9 10 11 13 15 16 
 17 18 19 20 21 22 23 24 25 27 28 30 
 31 33 35 36 37 38 39 40 41 42 43 44 
 45 46 47 48 50 51 53 54 56 58 59 60 
 61 62 64 65 66 67 68 69 70 71 73 75 
 76 77 78 79 80 81 83 85 86 
 87 
 1 2 3 4 5 6 7 8 9 10 11 12 
 13 14 15 16 17 18 19 20 21 22 23 24 
 25 26 27 28 29 30 31 32 33 34 35 36 
 37 38 39 40 41 42 43 44 45 46 47 48 
 49 50 51 52 53 54 55 56 57 58 59 60 
 61 62 63 64 65 66 67 68 69 70 71 72 
 73 74 75 76 77 78 79 80 81 82 83 84 
 85 86 87 
 52 
 1 2 8 9 11 14 17 19 21 23 25 26 
 27 30 31 34 35 37 38 40 43 47 48 49 
 51 52 53 56 57 58 60 61 64 66 67 68 
 69 71 73 74 76 77 78 79 80 81 82 83 
 84 85 86 87 
 18 
 3 4 5 19 27 33 35 40 50 51 57 59 
 70 74 75 81 84 86 
 87 
 1 2 3 4 5 6 7 8 9 10 11 12 
 13 14 15 16 17 18 19 20 21 22 23 24 
 25 26 27 28 29 30 31 32 33 34 35 36 
 37 38 39 40 41 42 43 44 45 46 47 48 
 49 50 51 52 53 54 55 56 57 58 59 60 
 61 62 63 64 65 66 67 68 69 70 71 72 
 73 74 75 76 77 78 79 80 81 82 83 84 
 85 86 87 
 83 
 1 2 3 4 5 6 7 8 9 10 11 12 
 13 14 15 16 17 18 19 20 21 22 23 24 
 25 26 27 28 30 31 32 33 34 35 36 37 
 39 40 41 42 44 45 46 47 48 49 50 51 
 52 53 54 55 56 57 58 59 60 61 62 63 
 64 65 66 67 68 69 70 71 72 73 74 75 
 76 77 78 79 80 81 82 83 84 85 87 
 39 
 1 2 4 5 13 16 17 18 19 21 25 27 
 31 34 35 37 38 40 41 45 46 47 50 54 
 55 58 59 62 63 64 65 70 72 74 76 78 
 84 85 86 
 44 
 2 3 5 11 12 13 15 16 17 23 30 31 
 33 34 43 44 45 46 47 48 49 50 51 52 
 53 54 55 59 62 63 66 68 69 71 72 73 
 74 78 81 82 83 85 86 87 
 52 
 1 2 4 5 6 7 8 9 14 16 18 19 
 25 26 28 29 31 32 36 38 39 42 44 45 
 46 47 50 51 52 54 55 57 58 59 60 61 
 63 67 68 69 70 71 72 73 75 76 77 78 
 82 83 85 87 
 81 
 1 2 3 4 5 6 7 8 9 11 12 13 
 14 15 16 17 18 19 20 21 22 23 24 25 
 26 27 28 29 30 31 34 35 36 37 38 39 
 40 41 42 43 45 46 47 48 49 50 51 52 
 53 54 55 56 57 58 59 60 61 62 64 65 
 66 67 68 69 70 71 72 73 74 75 76 77 
 78 79 80 82 83 84 85 86 87 
 81 
 1 3 4 5 6 7 8 9 10 11 12 13 
 14 15 16 17 18 19 20 21 22 23 24 25 
 26 27 28 29 30 31 32 33 34 35 36 37 
 38 39 41 42 43 45 47 48 49 50 51 52 
 53 54 55 56 58 59 60 61 62 63 64 65 
 66 67 68 69 70 71 72 73 74 75 76 77 
 78 79 80 81 82 83 84 85 86 
 12 
 4 10 14 38 41 49 53 57 59 68 76 82 
 28 
 5 8 9 11 12 13 19 28 31 33 34 36 
 40 41 42 54 56 57 59 60 61 63 67 68 
 69 74 84 85 
 18 
 2 7 9 17 19 33 45 46 52 53 58 61 
 62 69 72 73 75 81 
 78 
 2 3 4 5 6 7 8 9 10 12 13 14 
 15 16 17 18 19 20 21 22 23 24 25 26 
 27 28 31 33 34 35 36 37 38 39 40 41 
 42 43 44 45 46 47 48 49 50 51 52 53 
 55 56 58 59 60 61 62 63 64 65 66 68 
 69 71 72 73 74 75 76 77 78 79 80 81 
 82 83 84 85 86 87 
 45 
 3 5 7 9 10 13 14 17 18 19 22 25 
 26 28 30 33 35 37 38 40 42 44 45 47 
 51 52 55 60 63 66 67 68 69 70 71 72 
 75 76 79 80 81 82 83 84 86 
 80 
 1 2 3 4 5 6 7 8 9 10 11 12 
 14 16 17 18 19 20 21 22 23 24 25 26 
 27 28 29 30 31 32 34 35 36 37 38 39 
 40 41 42 43 44 45 46 47 48 49 50 51 
 52 53 54 55 57 58 59 60 61 62 63 64 
 65 66 67 68 69 70 72 73 74 75 76 77 
 78 79 81 82 84 85 86 87 
 5 
 1 34 51 56 63 
 15 
 5 9 21 23 28 31 37 38 39 49 50 51 
 52 69 86 
 40 
 1 3 4 6 7 9 15 17 18 20 21 23 
 24 25 26 30 31 34 39 42 45 51 53 56 
 58 62 65 68 70 72 73 76 78 79 80 82 
 83 84 85 86 
 73 
 1 3 4 5 6 7 8 9 10 11 12 13 
 14 15 16 17 18 19 20 21 22 24 25 26 
 27 29 30 31 32 34 35 36 37 38 39 40 
 41 43 45 48 50 51 52 53 55 56 57 58 
 59 60 62 63 64 65 66 67 69 70 72 73 
 74 75 76 77 78 79 80 81 82 83 84 85 
 87 
 76 
 1 2 3 7 8 10 11 12 13 14 16 17 
 18 19 20 21 22 23 24 25 26 27 28 29 
 30 31 32 33 34 35 36 37 38 39 40 41 
 43 44 45 47 48 49 50 51 52 53 54 55 
 56 57 58 59 60 61 62 63 64 66 67 68 
 69 71 72 73 74 75 76 77 78 79 81 82 
 83 84 86 87 
 38 
 1 4 5 7 10 15 16 23 25 26 36 37 
 40 42 43 44 45 49 50 51 52 54 56 59 
 62 63 64 65 66 73 74 77 79 80 81 83 
 84 86 
 70 
 2 3 5 6 7 8 10 11 12 13 15 16 
 17 18 20 21 22 23 25 26 27 28 29 30 
 31 32 33 34 35 36 37 38 40 41 42 43 
 45 47 49 50 51 52 54 55 56 57 58 59 
 61 63 64 65 66 67 69 70 71 72 73 74 
 75 76 77 78 80 82 83 85 86 87 
 20 
 3 6 7 9 12 18 21 26 28 36 40 41 
 45 46 59 60 71 73 83 87 
 34 
 4 6 7 10 11 14 19 20 21 22 24 25 
 39 40 41 44 46 47 48 49 50 55 59 63 
 65 68 70 71 73 75 76 77 79 83 
 84 
 1 3 4 5 6 7 8 9 10 11 12 13 
 14 15 16 17 18 19 20 21 22 23 24 25 
 26 27 28 29 30 31 32 33 34 35 36 37 
 39 40 41 42 43 44 45 46 47 48 49 50 
 51 52 53 54 55 56 57 58 59 60 61 62 
 63 64 65 66 68 69 70 71 72 73 74 75 
 76 77 78 79 80 81 82 83 84 85 86 87 
 45 
 4 5 10 11 12 18 21 24 25 27 28 29 
 30 31 32 36 38 39 42 46 48 51 52 54 
 55 56 57 59 60 61 62 63 64 65 66 68 
 69 70 72 73 74 75 83 85 86 
 5 
 3 24 28 52 58 
 72 
 1 3 4 5 6 8 9 11 13 14 15 16 
 17 18 20 21 22 23 24 25 27 28 29 30 
 31 32 34 35 36 37 38 39 40 41 42 43 
 44 45 46 47 49 50 51 54 55 56 57 58 
 59 60 61 63 64 65 66 67 68 69 71 72 
 74 75 77 78 79 80 81 82 83 84 85 87 
 86 
 1 2 3 4 5 6 7 8 9 10 11 12 
 13 15 16 17 18 19 20 21 22 23 24 25 
 26 27 28 29 30 31 32 33 34 35 36 37 
 38 39 40 41 42 43 44 45 46 47 48 49 
 50 51 52 53 54 55 56 57 58 59 60 61 
 62 63 64 65 66 67 68 69 70 71 72 73 
 74 75 76 77 78 79 80 81 82 83 84 85 
 86 87 
 34 
 1 2 5 6 7 12 18 19 22 31 34 35 
 38 39 44 48 51 54 58 59 60 62 63 64 
 67 71 73 77 79 81 82 83 84 85 
 35 
 1 5 6 9 10 11 15 17 21 25 27 28 
 30 31 32 36 38 40 49 50 52 56 57 60 
 66 68 71 72 73 74 76 78 82 84 86 
 55 
 1 4 9 10 12 13 14 15 17 18 22 23 
 24 25 26 27 28 30 33 34 36 37 39 40 
 41 42 43 44 46 47 48 49 52 53 54 56 
 62 63 64 65 66 67 68 69 70 72 73 75 
 77 78 79 80 82 83 85 
 68 
 1 2 4 5 6 7 9 10 11 12 14 15 
 16 17 20 21 23 24 25 26 27 28 30 31 
 32 34 36 37 38 39 41 42 43 45 46 48 
 49 50 51 52 53 54 55 56 57 58 59 62 
 63 64 65 66 67 68 69 71 73 75 76 77 
 78 79 81 82 83 84 85 87 
 34 
 5 6 7 8 10 13 16 17 18 19 29 34 
 36 41 42 44 47 49 52 54 56 57 60 61 
 64 65 70 73 76 79 80 82 84 85 
 30 
 1 2 6 7 9 18 20 22 27 28 33 34 
 35 41 43 47 48 54 57 63 66 68 71 72 
 75 78 80 82 85 87 
 87 
 1 2 3 4 5 6 7 8 9 10 11 12 
 13 14 15 16 17 18 19 20 21 22 23 24 
 25 26 27 28 29 30 31 32 33 34 35 36 
 37 38 39 40 41 42 43 44 45 46 47 48 
 49 50 51 52 53 54 55 56 57 58 59 60 
 61 62 63 64 65 66 67 68 69 70 71 72 
 73 74 75 76 77 78 79 80 81 82 83 84 
 85 86 87 
 11 
 3 5 8 13 19 32 68 76 78 80 84 
 21 
 18 22 24 32 45 46 47 48 53 55 63 65 
 67 70 72 73 74 76 79 80 86 
 73 
 1 4 5 6 7 8 9 10 12 14 15 16 
 17 18 19 21 22 23 25 28 31 32 33 34 
 35 36 37 38 39 40 42 43 44 45 46 47 
 48 50 51 52 54 55 56 57 58 59 60 62 
 63 64 65 66 67 68 69 70 71 72 73 74 
 75 76 77 78 79 80 81 82 83 84 85 86 
 87 
 58 
 2 3 5 11 13 14 16 17 18 19 22 23 
 25 26 27 28 32 34 35 36 37 38 39 40 
 41 43 44 45 49 50 52 53 54 55 56 57 
 58 60 61 62 63 65 67 69 70 71 72 73 
 75 77 78 79 80 81 84 85 86 87 
 85 
 1 2 3 4 5 6 7 8 9 10 11 12 
 13 14 15 16 17 18 19 20 21 22 23 24 
 25 26 27 28 29 30 32 33 34 35 36 37 
 38 39 40 41 42 43 44 45 46 47 48 49 
 50 51 52 53 54 55 56 57 59 60 61 62 
 63 64 65 66 67 68 69 70 71 72 73 74 
 75 76 77 78 79 80 81 82 83 84 85 86 
 87 
 80 
 1 2 3 4 5 6 7 8 9 10 11 13 
 14 15 16 17 18 19 20 21 22 23 24 25 
 27 28 29 30 31 33 34 35 36 37 38 39 
 40 41 43 45 46 47 48 49 50 51 52 53 
 54 55 56 57 58 59 60 61 62 63 64 65 
 66 68 69 70 71 72 73 74 75 76 77 78 
 79 80 82 83 84 85 86 87 
 24 
 2 5 8 12 14 18 19 22 25 28 29 36 
 37 40 45 48 49 52 56 59 72 77 81 87 
 76 
 1 2 3 4 5 7 8 9 10 11 13 14 
 15 16 18 19 20 21 22 24 25 27 28 29 
 30 31 33 35 36 37 38 39 41 42 44 45 
 46 47 48 49 50 51 53 54 55 56 57 58 
 59 60 61 62 63 64 66 67 68 69 70 71 
 72 73 74 75 76 77 78 79 80 81 82 83 
 84 85 86 87 
 23 
 1 3 4 6 7 9 12 14 15 19 20 28 
 41 51 57 58 61 62 69 70 73 75 82 
 48 
 3 6 7 8 9 10 12 14 15 18 20 22 
 25 28 29 30 31 34 36 37 39 40 42 43 
 44 46 47 48 50 53 55 56 58 60 61 64 
 65 66 67 71 72 73 75 77 83 84 85 86 
 75 
 1 2 3 4 5 7 8 9 10 11 12 13 
 14 15 16 17 18 20 21 22 23 24 25 28 
 29 30 31 32 33 34 35 36 37 39 40 41 
 42 43 45 46 48 49 51 52 53 54 55 56 
 57 58 59 63 64 65 66 67 68 69 70 71 
 72 73 74 75 76 77 78 79 80 81 82 83 
 85 86 87 
 9 
 5 10 27 30 55 56 77 78 85 
 53 
 2 3 5 8 9 11 13 14 17 19 21 22 
 23 24 26 27 28 30 31 33 35 37 38 40 
 43 45 47 48 49 50 51 53 54 57 60 63 
 64 65 67 68 70 71 72 73 74 75 78 80 
 81 82 83 84 87 
 82 
 1 2 3 4 5 6 7 8 9 10 11 12 
 13 14 15 16 17 18 19 20 21 22 23 24 
 25 26 27 28 31 32 33 34 35 36 37 38 
 39 40 41 42 43 45 46 47 48 49 50 51 
 52 53 54 55 56 57 58 59 60 61 62 63 
 64 65 66 67 68 71 72 73 74 75 76 77 
 78 79 80 81 82 83 84 85 86 87 
 82 
 1 2 3 4 5 6 7 8 10 11 12 13 
 14 15 16 17 18 19 20 21 22 24 25 26 
 27 28 30 31 32 33 34 35 36 37 38 39 
 40 41 42 43 44 45 46 47 48 49 50 51 
 52 53 54 55 56 57 58 59 60 61 63 64 
 65 66 67 68 69 70 71 72 73 74 75 76 
 77 79 80 81 82 83 84 85 86 87 
 86 
 1 2 3 4 5 6 7 8 9 10 11 12 
 13 14 15 16 17 18 19 20 21 22 23 24 
 25 26 27 28 29 30 31 32 33 34 35 36 
 37 38 39 40 41 42 43 44 45 46 47 48 
 49 50 51 52 53 54 55 56 57 58 59 60 
 61 62 63 64 65 66 67 69 70 71 72 73 
 74 75 76 77 78 79 80 81 82 83 84 85 
 86 87 
 77 
 3 4 5 6 7 8 9 10 11 12 13 14 
 15 16 17 19 20 21 22 23 24 26 27 28 
 29 30 32 33 34 35 36 37 38 39 40 41 
 42 44 45 46 47 49 50 51 52 53 54 55 
 56 57 58 59 60 61 62 63 66 67 68 69 
 70 71 73 74 75 76 77 78 79 80 81 82 
 83 84 85 86 87 
 15 
 6 8 9 11 13 15 18 19 23 27 32 38 
 43 57 87 
 11 
 4 8 24 27 45 59 69 70 80 81 82 
 63 
 1 2 4 5 6 7 9 10 11 12 13 14 
 20 21 22 23 25 26 27 28 29 31 33 34 
 35 36 37 38 39 40 41 42 43 44 45 46 
 47 48 49 50 51 52 53 60 61 62 63 64 
 65 66 68 72 73 74 75 76 77 80 81 82 
 83 84 86 
 27 
 2 6 8 16 17 18 22 23 26 31 42 43 
 44 48 52 53 60 61 64 65 66 71 77 78 
 79 81 87 
 76 
 1 2 3 4 5 6 7 8 10 11 13 14 
 15 16 17 18 19 20 21 22 25 26 27 28 
 29 30 32 33 34 35 36 37 38 39 40 41 
 43 44 45 46 47 49 50 51 52 53 54 55 
 56 57 58 61 62 63 65 66 67 68 69 70 
 71 72 73 74 75 76 77 78 79 80 81 82 
 83 85 86 87 
 31 
 2 3 10 11 15 16 19 21 22 24 33 34 
 36 40 42 46 48 50 53 54 55 60 66 69 
 73 74 75 78 79 82 85 
 48 
 2 3 6 7 9 12 13 14 15 16 17 18 
 19 20 22 23 25 26 29 32 33 35 36 41 
 42 47 48 49 50 51 53 55 56 57 58 59 
 60 62 64 66 67 71 77 79 80 82 84 87 
 59 
 1 3 5 6 7 8 9 12 13 14 17 19 
 22 24 25 26 27 28 30 32 34 35 36 41 
 42 43 44 45 46 47 48 51 52 54 55 56 
 57 59 60 62 63 64 65 66 67 69 70 71 
 72 76 77 79 80 82 83 84 85 86 87 
 71 
 2 3 4 5 6 7 8 9 10 11 12 13 
 14 15 16 17 18 19 20 21 22 23 24 25 
 26 27 28 29 30 31 32 34 35 36 37 38 
 40 41 42 43 45 46 47 49 52 54 56 58 
 59 60 61 62 63 64 65 66 67 68 69 70 
 71 73 74 75 76 78 79 81 82 83 86 
 85 
 1 2 4 5 6 7 8 9 10 11 12 13 
 14 15 16 17 18 19 20 21 22 23 24 25 
 26 27 28 29 30 31 32 33 34 35 36 37 
 38 39 40 41 42 43 44 45 46 47 48 49 
 50 51 52 53 54 55 56 57 58 59 60 61 
 62 63 64 65 66 67 69 70 71 72 73 74 
 75 76 77 78 79 80 81 82 83 84 85 86 
 87 
 80 
 1 2 4 5 6 7 8 9 10 11 13 14 
 15 16 17 18 19 20 21 22 23 24 25 26 
 27 28 29 30 31 32 33 34 35 36 37 38 
 40 41 42 43 44 45 46 47 48 50 51 52 
 53 54 55 56 57 58 59 60 61 62 63 64 
 66 67 69 70 71 72 73 74 75 76 77 78 
 79 80 81 82 83 84 85 86 
 52 
 2 4 6 7 8 10 11 12 13 14 15 17 
 19 21 22 23 24 25 27 28 30 31 33 35 
 40 42 43 44 46 47 50 52 58 60 62 63 
 66 68 69 70 72 73 74 75 76 77 80 81 
 82 83 86 87 
 57 
 1 2 3 4 5 6 7 8 13 14 15 16 
 17 18 22 23 24 25 26 30 32 33 34 35 
 37 40 41 42 43 44 46 49 50 51 52 53 
 54 55 57 59 62 63 64 65 66 69 70 71 
 73 74 75 78 79 80 81 82 85 
 57 
 4 5 6 7 8 11 13 14 15 16 17 18 
 20 21 22 25 27 28 31 32 33 34 35 36 
 37 38 39 43 44 45 47 49 50 52 53 55 
 56 57 59 61 63 69 70 71 72 73 74 75 
 76 78 79 80 81 82 85 86 87 
 2 
 12 65 
 81 
 1 2 3 4 5 6 7 8 10 11 12 13 
 14 15 16 17 18 19 20 21 22 23 25 26 
 27 28 30 31 32 33 34 35 36 37 38 39 
 40 41 42 43 44 45 46 47 49 50 51 52 
 53 54 55 56 57 58 59 60 61 62 63 64 
 66 67 68 69 70 71 72 73 74 75 76 77 
 78 79 80 81 82 83 84 85 87 
 23 
 3 4 7 10 15 19 20 28 41 48 49 54 
 55 56 60 64 66 72 73 78 80 82 84 
 38 
 6 7 8 10 11 19 20 23 25 27 28 35 
 36 37 38 41 42 45 46 49 51 53 55 57 
 58 61 62 63 64 67 71 73 74 75 76 80 
 86 87 
 26 
 1 3 6 7 8 10 16 26 27 29 31 42 
 46 52 54 59 61 63 64 65 66 68 75 79 
 85 87 
 3 
 26 40 80 
 16 
 1 3 7 10 33 38 40 43 44 51 55 60 
 66 68 77 85 
 54 
 1 2 4 6 8 9 11 14 15 16 17 19 
 20 21 22 23 24 25 26 28 29 30 31 32 
 33 35 37 38 39 40 43 44 46 49 50 52 
 53 56 59 60 61 62 66 70 71 72 73 74 
 79 81 82 83 84 87 
 70 
 2 3 4 6 7 8 9 10 13 14 16 17 
 20 21 22 23 25 27 28 29 30 31 32 34 
 35 36 37 39 40 41 42 43 46 47 48 49 
 50 51 52 53 54 56 57 58 60 61 62 63 
 64 65 66 67 68 69 70 71 72 73 74 75 
 76 78 79 80 81 82 83 85 86 87 
 37 
 1 2 5 7 8 9 16 22 25 27 30 33 
 34 38 39 40 41 43 45 48 49 54 57 58 
 60 65 66 67 70 71 73 74 75 79 81 84 
 86 
 33 
 1 3 4 7 11 17 19 20 23 25 27 29 
 30 32 39 43 44 45 57 58 60 61 62 65 
 66 68 72 76 77 79 81 83 84 
 83 
 1 2 3 4 5 6 7 8 9 10 11 12 
 13 14 15 16 17 18 19 20 21 22 23 24 
 25 26 27 28 29 30 31 32 33 34 36 37 
 38 39 40 41 42 43 44 45 46 47 48 49 
 50 51 52 53 54 55 56 57 58 59 60 61 
 62 63 65 66 67 68 69 70 71 73 74 75 
 76 77 78 79 80 81 82 84 85 86 87 
 49 
 3 5 7 9 10 11 14 16 17 18 19 21 
 24 25 26 28 30 33 34 35 37 39 41 42 
 47 49 50 51 52 53 54 55 62 63 64 65 
 66 67 68 69 70 72 73 76 78 81 82 85 
 86 
 67 
 2 3 4 5 6 7 10 11 12 13 16 17 
 18 19 21 22 24 25 26 28 29 30 31 32 
 33 34 35 36 37 38 39 40 42 45 46 47 
 48 50 51 52 53 54 55 58 59 60 62 63 
 64 65 67 68 69 70 71 72 73 74 75 77 
 80 81 82 84 85 86 87 
 70 
 1 2 4 5 6 7 8 9 10 11 12 13 
 15 16 17 18 19 20 21 23 24 25 26 28 
 29 30 31 33 34 35 36 37 39 40 41 43 
 44 45 46 48 50 51 52 53 54 56 58 59 
 61 62 63 64 65 66 67 68 70 72 73 75 
 76 77 78 79 80 81 83 84 85 87 
 24 
 3 10 11 16 19 20 22 24 25 27 34 45 
 46 47 53 57 59 60 61 63 67 68 83 87 
 14 
 1 5 17 28 38 54 56 57 60 64 65 76 
 82 87 
 34 
 1 2 6 10 12 13 14 15 16 19 20 25 
 28 29 31 32 34 35 41 47 48 54 55 57 
 63 67 70 71 72 75 83 85 86 87 
 44 
 2 4 6 9 10 11 13 14 15 16 18 23 
 25 26 30 32 33 36 39 42 43 44 45 47 
 48 50 51 53 55 57 58 63 67 68 71 72 
 75 77 78 79 80 83 86 87 
 3 
 3 27 73 
 61 
 2 3 5 7 8 9 10 11 12 14 17 20 
 22 23 24 25 26 27 28 29 30 31 32 34 
 35 38 40 41 42 43 45 46 47 48 49 50 
 52 54 56 57 58 59 62 63 64 65 66 67 
 69 72 73 74 76 78 79 80 81 82 83 84 
 86 
 7 
 16 46 55 59 75 85 87 
 56 
 3 4 7 8 10 11 13 14 17 18 20 21 
 25 26 27 28 29 30 33 34 35 36 39 40 
 42 45 46 48 49 50 51 52 53 55 56 57 
 59 61 63 64 66 67 68 69 71 73 74 75 
 76 78 80 81 82 83 85 86 
 7 
 13 19 29 60 62 66 84 
 9 
 31 40 47 49 52 59 61 84 85 
 8 
 2 5 11 32 51 59 63 64 
 39 
 4 5 9 11 12 13 15 17 24 25 28 32 
 33 34 36 37 41 43 44 48 49 50 52 58 
 59 66 68 69 70 73 75 76 77 78 79 80 
 82 85 86 
 42 
 4 6 7 8 15 16 17 18 21 22 23 25 
 29 32 34 35 36 38 39 41 42 44 45 48 
 52 54 57 58 59 63 64 66 68 72 73 75 
 78 80 81 82 83 86 
 35 
 4 5 8 12 18 20 22 23 27 31 36 39 
 42 44 45 46 49 53 56 59 60 63 64 65 
 66 67 68 72 74 79 81 82 83 86 87 
 